c PMC file for PBN EPFL/random_control/int2float_distill_EPFL/random_control/int2float_miter written by probABC
p cnf 603 1506
c ind 1 2 3 4 5 6 7 8 9 10 11 484 485 486 487 488 489 490 491 492 493 494 495 496 497 498 499 500 501 502 503 504 505 506 507 508 509 510 511 512 513 514 515 516 517 518 519 520 521 522 523 524 525 526 527 528 529 530 531 532 533 534 535 536 537 538 539 540 541 542 543 544 545 546 547 548 549 550 551 552 553 554 555 556 557 558 559 560 561 562 563 564 565 566 567 568 569 570 571 572 573 0
43 7 -8 0
-43 -7 0
-43 8 0
44 -5 -7 0
-44 5 0
-44 7 0
45 -6 8 0
-45 6 0
-45 -8 0
46 13 45 0
-46 -13 0
-46 -45 0
47 -13 -45 0
-47 13 0
-47 45 0
48 46 47 0
-48 -46 0
-48 -47 0
49 -44 -48 0
-49 44 0
-49 48 0
50 43 49 0
-50 -43 0
-50 -49 0
51 -9 50 0
-51 9 0
-51 -50 0
52 4 6 0
-52 -4 0
-52 -6 0
53 -3 -4 0
-53 3 0
-53 4 0
54 -4 -7 0
-54 4 0
-54 7 0
55 -5 52 0
-55 5 0
-55 -52 0
56 53 54 0
-56 -53 0
-56 -54 0
57 -55 -56 0
-57 55 0
-57 56 0
58 5 -6 0
-58 -5 0
-58 6 0
59 -4 -58 0
-59 4 0
-59 58 0
60 4 -5 0
-60 -4 0
-60 5 0
61 -1 7 0
-61 1 0
-61 -7 0
62 -60 -61 0
-62 60 0
-62 61 0
63 59 62 0
-63 -59 0
-63 -62 0
64 -2 63 0
-64 2 0
-64 -63 0
65 5 7 0
-65 -5 0
-65 -7 0
66 -4 -5 0
-66 4 0
-66 5 0
67 -1 -2 0
-67 1 0
-67 2 0
68 27 67 0
-68 -27 0
-68 -67 0
69 -27 -67 0
-69 27 0
-69 67 0
70 68 69 0
-70 -68 0
-70 -69 0
71 -66 70 0
-71 66 0
-71 -70 0
72 65 71 0
-72 -65 0
-72 -71 0
73 6 72 0
-73 -6 0
-73 -72 0
74 64 73 0
-74 -64 0
-74 -73 0
75 28 -74 0
-75 -28 0
-75 74 0
76 -28 74 0
-76 28 0
-76 -74 0
77 -3 75 0
-77 3 0
-77 -75 0
78 76 -77 0
-78 -76 0
-78 77 0
79 57 78 0
-79 -57 0
-79 -78 0
80 8 79 0
-80 -8 0
-80 -79 0
81 -6 -7 0
-81 6 0
-81 7 0
82 66 -81 0
-82 -66 0
-82 81 0
83 -6 7 0
-83 6 0
-83 -7 0
84 2 -83 0
-84 -2 0
-84 83 0
85 -3 6 0
-85 3 0
-85 -6 0
86 -7 -85 0
-86 7 0
-86 85 0
87 84 86 0
-87 -84 0
-87 -86 0
88 -66 87 0
-88 66 0
-88 -87 0
89 29 88 0
-89 -29 0
-89 -88 0
90 -29 -88 0
-90 29 0
-90 88 0
91 89 90 0
-91 -89 0
-91 -90 0
92 82 91 0
-92 -82 0
-92 -91 0
93 80 -92 0
-93 -80 0
-93 92 0
94 9 93 0
-94 -9 0
-94 -93 0
95 -5 -6 0
-95 5 0
-95 6 0
96 3 8 0
-96 -3 0
-96 -8 0
97 -7 -96 0
-97 7 0
-97 96 0
98 -4 -43 0
-98 4 0
-98 43 0
99 97 98 0
-99 -97 0
-99 -98 0
100 -95 99 0
-100 95 0
-100 -99 0
101 -7 -8 0
-101 7 0
-101 8 0
102 95 -101 0
-102 -95 0
-102 101 0
103 100 102 0
-103 -100 0
-103 -102 0
104 94 -103 0
-104 -94 0
-104 103 0
105 10 104 0
-105 -10 0
-105 -104 0
106 51 105 0
-106 -51 0
-106 -105 0
107 11 106 0
-107 -11 0
-107 -106 0
108 -9 -11 0
-108 9 0
-108 11 0
109 -6 9 0
-109 6 0
-109 -9 0
110 -10 -109 0
-110 10 0
-110 109 0
111 108 110 0
-111 -108 0
-111 -110 0
112 -101 111 0
-112 101 0
-112 -111 0
113 -6 -8 0
-113 6 0
-113 8 0
114 30 113 0
-114 -30 0
-114 -113 0
115 -30 -113 0
-115 30 0
-115 113 0
116 114 115 0
-116 -114 0
-116 -115 0
117 -9 116 0
-117 9 0
-117 -116 0
118 11 117 0
-118 -11 0
-118 -117 0
119 -10 118 0
-119 10 0
-119 -118 0
120 112 119 0
-120 -112 0
-120 -119 0
121 31 -120 0
-121 -31 0
-121 120 0
122 -31 120 0
-122 31 0
-122 -120 0
123 121 122 0
-123 -121 0
-123 -122 0
124 107 123 0
-124 -107 0
-124 -123 0
125 -9 113 0
-125 9 0
-125 -113 0
126 11 125 0
-126 -11 0
-126 -125 0
127 -10 126 0
-127 10 0
-127 -126 0
128 -66 67 0
-128 66 0
-128 -67 0
129 65 128 0
-129 -65 0
-129 -128 0
130 6 129 0
-130 -6 0
-130 -129 0
131 64 130 0
-131 -64 0
-131 -130 0
132 -3 131 0
-132 3 0
-132 -131 0
133 57 132 0
-133 -57 0
-133 -132 0
134 8 133 0
-134 -8 0
-134 -133 0
135 82 88 0
-135 -82 0
-135 -88 0
136 134 -135 0
-136 -134 0
-136 135 0
137 9 136 0
-137 -9 0
-137 -136 0
138 -103 137 0
-138 103 0
-138 -137 0
139 10 138 0
-139 -10 0
-139 -138 0
140 -7 8 0
-140 7 0
-140 -8 0
141 -95 -140 0
-141 95 0
-141 140 0
142 43 141 0
-142 -43 0
-142 -141 0
143 -9 142 0
-143 9 0
-143 -142 0
144 139 143 0
-144 -139 0
-144 -143 0
145 11 144 0
-145 -11 0
-145 -144 0
146 112 127 0
-146 -112 0
-146 -127 0
147 145 -146 0
-147 -145 0
-147 146 0
148 124 147 0
-148 -124 0
-148 -147 0
149 -124 -147 0
-149 124 0
-149 147 0
150 148 149 0
-150 -148 0
-150 -149 0
151 25 53 0
-151 -25 0
-151 -53 0
152 -25 -53 0
-152 25 0
-152 53 0
153 -44 151 0
-153 44 0
-153 -151 0
154 152 -153 0
-154 -152 0
-154 153 0
155 -6 -154 0
-155 6 0
-155 154 0
156 6 7 0
-156 -6 0
-156 -7 0
157 8 9 0
-157 -8 0
-157 -9 0
158 156 -157 0
-158 -156 0
-158 157 0
159 155 -158 0
-159 -155 0
-159 158 0
160 10 11 0
-160 -10 0
-160 -11 0
161 -9 -116 0
-161 9 0
-161 116 0
162 -7 -161 0
-162 7 0
-162 161 0
163 -2 -4 0
-163 2 0
-163 4 0
164 -38 163 0
-164 38 0
-164 -163 0
165 38 -163 0
-165 -38 0
-165 163 0
166 164 165 0
-166 -164 0
-166 -165 0
167 6 8 0
-167 -6 0
-167 -8 0
168 9 -167 0
-168 -9 0
-168 167 0
169 39 168 0
-169 -39 0
-169 -168 0
170 -39 -168 0
-170 39 0
-170 168 0
171 -1 166 0
-171 1 0
-171 -166 0
172 169 170 0
-172 -169 0
-172 -170 0
173 -171 -172 0
-173 171 0
-173 172 0
174 162 173 0
-174 -162 0
-174 -173 0
175 -3 174 0
-175 3 0
-175 -174 0
176 41 54 0
-176 -41 0
-176 -54 0
177 -41 -54 0
-177 41 0
-177 54 0
178 40 161 0
-178 -40 0
-178 -161 0
179 -40 -161 0
-179 40 0
-179 161 0
180 176 177 0
-180 -176 0
-180 -177 0
181 178 -180 0
-181 -178 0
-181 180 0
182 179 -181 0
-182 -179 0
-182 181 0
183 175 182 0
-183 -175 0
-183 -182 0
184 -5 183 0
-184 5 0
-184 -183 0
185 159 -160 0
-185 -159 0
-185 160 0
186 184 -185 0
-186 -184 0
-186 185 0
187 -44 -53 0
-187 44 0
-187 53 0
188 -6 -187 0
-188 6 0
-188 187 0
189 -158 188 0
-189 158 0
-189 -188 0
190 -8 -81 0
-190 8 0
-190 81 0
191 -9 -190 0
-191 9 0
-191 190 0
192 -1 -163 0
-192 1 0
-192 163 0
193 -168 -192 0
-193 168 0
-193 192 0
194 191 193 0
-194 -191 0
-194 -193 0
195 -3 194 0
-195 3 0
-195 -194 0
196 -4 -9 0
-196 4 0
-196 9 0
197 -190 -196 0
-197 190 0
-197 196 0
198 195 197 0
-198 -195 0
-198 -197 0
199 -5 198 0
-199 5 0
-199 -198 0
200 -160 189 0
-200 160 0
-200 -189 0
201 199 -200 0
-201 -199 0
-201 200 0
202 -186 201 0
-202 186 0
-202 -201 0
203 5 -7 0
-203 -5 0
-203 7 0
204 10 -203 0
-204 -10 0
-204 203 0
205 4 -83 0
-205 -4 0
-205 83 0
206 204 205 0
-206 -204 0
-206 -205 0
207 3 206 0
-207 -3 0
-207 -206 0
208 11 207 0
-208 -11 0
-208 -207 0
209 10 -154 0
-209 -10 0
-209 154 0
210 84 204 0
-210 -84 0
-210 -204 0
211 -24 210 0
-211 24 0
-211 -210 0
212 24 -210 0
-212 -24 0
-212 210 0
213 4 211 0
-213 -4 0
-213 -211 0
214 212 -213 0
-214 -212 0
-214 213 0
215 -208 209 0
-215 208 0
-215 -209 0
216 214 -215 0
-216 -214 0
-216 215 0
217 8 216 0
-217 -8 0
-217 -216 0
218 26 -217 0
-218 -26 0
-218 217 0
219 7 -11 0
-219 -7 0
-219 11 0
220 -26 217 0
-220 26 0
-220 -217 0
221 218 219 0
-221 -218 0
-221 -219 0
222 220 -221 0
-222 -220 0
-222 221 0
223 9 222 0
-223 -9 0
-223 -222 0
224 -2 -3 0
-224 2 0
-224 3 0
225 -5 9 0
-225 5 0
-225 -9 0
226 10 -225 0
-226 -10 0
-226 225 0
227 5 8 0
-227 -5 0
-227 -8 0
228 7 -227 0
-228 -7 0
-228 227 0
229 226 228 0
-229 -226 0
-229 -228 0
230 -224 229 0
-230 224 0
-230 -229 0
231 -8 10 0
-231 8 0
-231 -10 0
232 14 225 0
-232 -14 0
-232 -225 0
233 -14 -225 0
-233 14 0
-233 225 0
234 232 233 0
-234 -232 0
-234 -233 0
235 -231 -234 0
-235 231 0
-235 234 0
236 230 235 0
-236 -230 0
-236 -235 0
237 -4 236 0
-237 4 0
-237 -236 0
238 8 -10 0
-238 -8 0
-238 10 0
239 5 10 0
-239 -5 0
-239 -10 0
240 9 10 0
-240 -9 0
-240 -10 0
241 238 239 0
-241 -238 0
-241 -239 0
242 240 -241 0
-242 -240 0
-242 241 0
243 22 242 0
-243 -22 0
-243 -242 0
244 -22 -242 0
-244 22 0
-244 242 0
245 -7 243 0
-245 7 0
-245 -243 0
246 244 -245 0
-246 -244 0
-246 245 0
247 237 246 0
-247 -237 0
-247 -246 0
248 -6 247 0
-248 6 0
-248 -247 0
249 -9 10 0
-249 9 0
-249 -10 0
250 5 -249 0
-250 -5 0
-250 249 0
251 -23 250 0
-251 23 0
-251 -250 0
252 23 -250 0
-252 -23 0
-252 250 0
253 238 251 0
-253 -238 0
-253 -251 0
254 252 -253 0
-254 -252 0
-254 253 0
255 7 254 0
-255 -7 0
-255 -254 0
256 66 -231 0
-256 -66 0
-256 231 0
257 21 256 0
-257 -21 0
-257 -256 0
258 -21 -256 0
-258 21 0
-258 256 0
259 9 257 0
-259 -9 0
-259 -257 0
260 258 -259 0
-260 -258 0
-260 259 0
261 1 -3 0
-261 -1 0
-261 3 0
262 -1 224 0
-262 1 0
-262 -224 0
263 -5 8 0
-263 5 0
-263 -8 0
264 261 -263 0
-264 -261 0
-264 263 0
265 262 -264 0
-265 -262 0
-265 264 0
266 -20 265 0
-266 20 0
-266 -265 0
267 20 -265 0
-267 -20 0
-267 265 0
268 19 -96 0
-268 -19 0
-268 96 0
269 -19 96 0
-269 19 0
-269 -96 0
270 239 268 0
-270 -239 0
-270 -268 0
271 269 -270 0
-271 -269 0
-271 270 0
272 2 271 0
-272 -2 0
-272 -271 0
273 249 266 0
-273 -249 0
-273 -266 0
274 267 -273 0
-274 -267 0
-274 273 0
275 272 -274 0
-275 -272 0
-275 274 0
276 7 275 0
-276 -7 0
-276 -275 0
277 238 260 0
-277 -238 0
-277 -260 0
278 276 -277 0
-278 -276 0
-278 277 0
279 6 278 0
-279 -6 0
-279 -278 0
280 248 255 0
-280 -248 0
-280 -255 0
281 279 -280 0
-281 -279 0
-281 280 0
282 11 281 0
-282 -11 0
-282 -281 0
283 10 -101 0
-283 -10 0
-283 101 0
284 -108 -283 0
-284 108 0
-284 283 0
285 223 284 0
-285 -223 0
-285 -284 0
286 282 -285 0
-286 -282 0
-286 285 0
287 4 210 0
-287 -4 0
-287 -210 0
288 10 -187 0
-288 -10 0
-288 187 0
289 287 288 0
-289 -287 0
-289 -288 0
290 -208 -289 0
-290 208 0
-290 289 0
291 8 290 0
-291 -8 0
-291 -290 0
292 219 291 0
-292 -219 0
-292 -291 0
293 9 292 0
-293 -9 0
-293 -292 0
294 -225 -231 0
-294 225 0
-294 231 0
295 230 294 0
-295 -230 0
-295 -294 0
296 -4 295 0
-296 4 0
-296 -295 0
297 -7 -242 0
-297 7 0
-297 242 0
298 296 297 0
-298 -296 0
-298 -297 0
299 -6 298 0
-299 6 0
-299 -298 0
300 238 250 0
-300 -238 0
-300 -250 0
301 7 300 0
-301 -7 0
-301 -300 0
302 9 -256 0
-302 -9 0
-302 256 0
303 96 239 0
-303 -96 0
-303 -239 0
304 2 303 0
-304 -2 0
-304 -303 0
305 249 265 0
-305 -249 0
-305 -265 0
306 304 -305 0
-306 -304 0
-306 305 0
307 7 306 0
-307 -7 0
-307 -306 0
308 238 302 0
-308 -238 0
-308 -302 0
309 307 -308 0
-309 -307 0
-309 308 0
310 6 309 0
-310 -6 0
-310 -309 0
311 299 301 0
-311 -299 0
-311 -301 0
312 310 -311 0
-312 -310 0
-312 311 0
313 11 312 0
-313 -11 0
-313 -312 0
314 284 293 0
-314 -284 0
-314 -293 0
315 313 -314 0
-315 -313 0
-315 314 0
316 -286 315 0
-316 286 0
-316 -315 0
317 286 -315 0
-317 -286 0
-317 315 0
318 9 -227 0
-318 -9 0
-318 227 0
319 -156 -318 0
-319 156 0
-319 318 0
320 3 -7 0
-320 -3 0
-320 7 0
321 -8 -320 0
-321 8 0
-321 320 0
322 -5 -9 0
-322 5 0
-322 9 0
323 -6 -322 0
-323 6 0
-323 322 0
324 32 323 0
-324 -32 0
-324 -323 0
325 -32 -323 0
-325 32 0
-325 323 0
326 -321 324 0
-326 321 0
-326 -324 0
327 325 -326 0
-327 -325 0
-327 326 0
328 319 327 0
-328 -319 0
-328 -327 0
329 33 -328 0
-329 -33 0
-329 328 0
330 -33 328 0
-330 33 0
-330 -328 0
331 10 329 0
-331 -10 0
-331 -329 0
332 330 -331 0
-332 -330 0
-332 331 0
333 34 332 0
-333 -34 0
-333 -332 0
334 -34 -332 0
-334 34 0
-334 332 0
335 4 11 0
-335 -4 0
-335 -11 0
336 333 -335 0
-336 -333 0
-336 335 0
337 334 -336 0
-337 -334 0
-337 336 0
338 -321 -323 0
-338 321 0
-338 323 0
339 319 338 0
-339 -319 0
-339 -338 0
340 4 -160 0
-340 -4 0
-340 160 0
341 339 -340 0
-341 -339 0
-341 340 0
342 337 -341 0
-342 -337 0
-342 341 0
343 -337 341 0
-343 337 0
-343 -341 0
344 186 -201 0
-344 -186 0
-344 201 0
345 -95 -283 0
-345 95 0
-345 283 0
346 -3 4 0
-346 3 0
-346 -4 0
347 196 346 0
-347 -196 0
-347 -346 0
348 -345 347 0
-348 345 0
-348 -347 0
349 -10 190 0
-349 10 0
-349 -190 0
350 8 -224 0
-350 -8 0
-350 224 0
351 81 350 0
-351 -81 0
-351 -350 0
352 -4 351 0
-352 4 0
-352 -351 0
353 167 352 0
-353 -167 0
-353 -352 0
354 -5 353 0
-354 5 0
-354 -353 0
355 140 354 0
-355 -140 0
-355 -354 0
356 10 355 0
-356 -10 0
-356 -355 0
357 -67 -156 0
-357 67 0
-357 156 0
358 141 357 0
-358 -141 0
-358 -357 0
359 -53 358 0
-359 53 0
-359 -358 0
360 -356 359 0
-360 356 0
-360 -359 0
361 9 360 0
-361 -9 0
-361 -360 0
362 348 349 0
-362 -348 0
-362 -349 0
363 361 -362 0
-363 -361 0
-363 362 0
364 -37 363 0
-364 37 0
-364 -363 0
365 37 -363 0
-365 -37 0
-365 363 0
366 364 365 0
-366 -364 0
-366 -365 0
367 16 346 0
-367 -16 0
-367 -346 0
368 -16 -346 0
-368 16 0
-368 346 0
369 367 368 0
-369 -367 0
-369 -368 0
370 196 369 0
-370 -196 0
-370 -369 0
371 -345 370 0
-371 345 0
-371 -370 0
372 36 371 0
-372 -36 0
-372 -371 0
373 -36 -371 0
-373 36 0
-373 371 0
374 372 373 0
-374 -372 0
-374 -373 0
375 -70 -156 0
-375 70 0
-375 156 0
376 141 375 0
-376 -141 0
-376 -375 0
377 -53 376 0
-377 53 0
-377 -376 0
378 -356 377 0
-378 356 0
-378 -377 0
379 9 378 0
-379 -9 0
-379 -378 0
380 35 -379 0
-380 -35 0
-380 379 0
381 -35 379 0
-381 35 0
-381 -379 0
382 349 374 0
-382 -349 0
-382 -374 0
383 380 -382 0
-383 -380 0
-383 382 0
384 381 -383 0
-384 -381 0
-384 383 0
385 -366 384 0
-385 366 0
-385 -384 0
386 366 -384 0
-386 -366 0
-386 384 0
387 11 385 0
-387 -11 0
-387 -385 0
388 386 -387 0
-388 -386 0
-388 387 0
389 -2 3 0
-389 2 0
-389 -3 0
390 4 -234 0
-390 -4 0
-390 234 0
391 227 390 0
-391 -227 0
-391 -390 0
392 -389 391 0
-392 389 0
-392 -391 0
393 2 -3 0
-393 -2 0
-393 3 0
394 -157 -393 0
-394 157 0
-394 393 0
395 10 394 0
-395 -10 0
-395 -394 0
396 392 -395 0
-396 -392 0
-396 395 0
397 -83 396 0
-397 83 0
-397 -396 0
398 -7 -10 0
-398 7 0
-398 10 0
399 -15 -398 0
-399 15 0
-399 398 0
400 15 398 0
-400 -15 0
-400 -398 0
401 6 399 0
-401 -6 0
-401 -399 0
402 400 -401 0
-402 -400 0
-402 401 0
403 5 -8 0
-403 -5 0
-403 8 0
404 -48 -389 0
-404 48 0
-404 389 0
405 403 404 0
-405 -403 0
-405 -404 0
406 -4 405 0
-406 4 0
-406 -405 0
407 -8 -60 0
-407 8 0
-407 60 0
408 406 407 0
-408 -406 0
-408 -407 0
409 9 408 0
-409 -9 0
-409 -408 0
410 -9 -58 0
-410 9 0
-410 58 0
411 -2 -5 0
-411 2 0
-411 5 0
412 1 411 0
-412 -1 0
-412 -411 0
413 5 -9 0
-413 -5 0
-413 9 0
414 411 413 0
-414 -411 0
-414 -413 0
415 -1 414 0
-415 1 0
-415 -414 0
416 7 8 0
-416 -7 0
-416 -8 0
417 412 -416 0
-417 -412 0
-417 416 0
418 415 -417 0
-418 -415 0
-418 417 0
419 322 418 0
-419 -322 0
-419 -418 0
420 -12 419 0
-420 12 0
-420 -419 0
421 12 -419 0
-421 -12 0
-421 419 0
422 6 420 0
-422 -6 0
-422 -420 0
423 421 -422 0
-423 -421 0
-423 422 0
424 409 410 0
-424 -409 0
-424 -410 0
425 423 -424 0
-425 -423 0
-425 424 0
426 10 425 0
-426 -10 0
-426 -425 0
427 397 402 0
-427 -397 0
-427 -402 0
428 426 -427 0
-428 -426 0
-428 427 0
429 11 428 0
-429 -11 0
-429 -428 0
430 -8 -219 0
-430 8 0
-430 219 0
431 3 -4 0
-431 -3 0
-431 4 0
432 369 431 0
-432 -369 0
-432 -431 0
433 -240 432 0
-433 240 0
-433 -432 0
434 11 433 0
-434 -11 0
-434 -433 0
435 8 434 0
-435 -8 0
-435 -434 0
436 -10 -108 0
-436 10 0
-436 108 0
437 435 436 0
-437 -435 0
-437 -436 0
438 -7 437 0
-438 7 0
-438 -437 0
439 17 -438 0
-439 -17 0
-439 438 0
440 -17 438 0
-440 17 0
-440 -438 0
441 430 439 0
-441 -430 0
-441 -439 0
442 440 -441 0
-442 -440 0
-442 441 0
443 18 -442 0
-443 -18 0
-443 442 0
444 -18 442 0
-444 18 0
-444 -442 0
445 443 444 0
-445 -443 0
-445 -444 0
446 429 445 0
-446 -429 0
-446 -445 0
447 346 431 0
-447 -346 0
-447 -431 0
448 -240 447 0
-448 240 0
-448 -447 0
449 11 448 0
-449 -11 0
-449 -448 0
450 8 449 0
-450 -8 0
-450 -449 0
451 436 450 0
-451 -436 0
-451 -450 0
452 -7 451 0
-452 7 0
-452 -451 0
453 10 419 0
-453 -10 0
-453 -419 0
454 398 453 0
-454 -398 0
-454 -453 0
455 6 454 0
-455 -6 0
-455 -454 0
456 4 -225 0
-456 -4 0
-456 225 0
457 227 456 0
-457 -227 0
-457 -456 0
458 -389 457 0
-458 389 0
-458 -457 0
459 -395 458 0
-459 395 0
-459 -458 0
460 -83 459 0
-460 83 0
-460 -459 0
461 -45 -389 0
-461 45 0
-461 389 0
462 403 461 0
-462 -403 0
-462 -461 0
463 -4 462 0
-463 4 0
-463 -462 0
464 407 463 0
-464 -407 0
-464 -463 0
465 9 464 0
-465 -9 0
-465 -464 0
466 410 465 0
-466 -410 0
-466 -465 0
467 10 466 0
-467 -10 0
-467 -466 0
468 455 460 0
-468 -455 0
-468 -460 0
469 467 -468 0
-469 -467 0
-469 468 0
470 11 469 0
-470 -11 0
-470 -469 0
471 430 452 0
-471 -430 0
-471 -452 0
472 470 -471 0
-472 -470 0
-472 471 0
473 446 472 0
-473 -446 0
-473 -472 0
474 -446 -472 0
-474 446 0
-474 472 0
475 473 474 0
-475 -473 0
-475 -474 0
476 202 344 0
-476 -202 0
-476 -344 0
477 342 -476 0
-477 -342 0
-477 476 0
478 343 -477 0
-478 -343 0
-478 477 0
479 316 -478 0
-479 -316 0
-479 478 0
480 317 -479 0
-480 -317 0
-480 479 0
481 388 -480 0
-481 -388 0
-481 480 0
482 475 -481 0
-482 -475 0
-482 481 0
483 150 -482 0
-483 -150 0
-483 482 0
42 483 0
-42 -483 0
42 0
12 -484 -574 0
-12 484 0
-12 574 0
574 -485 -486 0
-574 485 0
-574 486 0
13 -487 -575 0
-13 487 0
-13 575 0
575 -488 -489 0
-575 488 0
-575 489 0
14 -490 -576 0
-14 490 0
-14 576 0
576 -491 -492 0
-576 491 0
-576 492 0
15 -493 -577 0
-15 493 0
-15 577 0
577 -494 -495 0
-577 494 0
-577 495 0
16 -496 -578 0
-16 496 0
-16 578 0
578 -497 -498 0
-578 497 0
-578 498 0
17 -499 -579 0
-17 499 0
-17 579 0
579 -500 -501 0
-579 500 0
-579 501 0
18 -502 -580 0
-18 502 0
-18 580 0
580 -503 -504 0
-580 503 0
-580 504 0
19 -505 -581 0
-19 505 0
-19 581 0
581 -506 -507 0
-581 506 0
-581 507 0
20 -508 -582 0
-20 508 0
-20 582 0
582 -509 -510 0
-582 509 0
-582 510 0
21 -511 -583 0
-21 511 0
-21 583 0
583 -512 -513 0
-583 512 0
-583 513 0
22 -514 -584 0
-22 514 0
-22 584 0
584 -515 -516 0
-584 515 0
-584 516 0
23 -517 -585 0
-23 517 0
-23 585 0
585 -518 -519 0
-585 518 0
-585 519 0
24 -520 -586 0
-24 520 0
-24 586 0
586 -521 -522 0
-586 521 0
-586 522 0
25 -523 -587 0
-25 523 0
-25 587 0
587 -524 -525 0
-587 524 0
-587 525 0
26 -526 -588 0
-26 526 0
-26 588 0
588 -527 -528 0
-588 527 0
-588 528 0
27 -529 -589 0
-27 529 0
-27 589 0
589 -530 -531 0
-589 530 0
-589 531 0
28 -532 -590 0
-28 532 0
-28 590 0
590 -533 -534 0
-590 533 0
-590 534 0
29 -535 -591 0
-29 535 0
-29 591 0
591 -536 -537 0
-591 536 0
-591 537 0
30 -538 -592 0
-30 538 0
-30 592 0
592 -539 -540 0
-592 539 0
-592 540 0
31 -541 -593 0
-31 541 0
-31 593 0
593 -542 -543 0
-593 542 0
-593 543 0
32 -544 -594 0
-32 544 0
-32 594 0
594 -545 -546 0
-594 545 0
-594 546 0
33 -547 -595 0
-33 547 0
-33 595 0
595 -548 -549 0
-595 548 0
-595 549 0
34 -550 -596 0
-34 550 0
-34 596 0
596 -551 -552 0
-596 551 0
-596 552 0
35 -553 -597 0
-35 553 0
-35 597 0
597 -554 -555 0
-597 554 0
-597 555 0
36 -556 -598 0
-36 556 0
-36 598 0
598 -557 -558 0
-598 557 0
-598 558 0
37 -559 -599 0
-37 559 0
-37 599 0
599 -560 -561 0
-599 560 0
-599 561 0
38 -562 -600 0
-38 562 0
-38 600 0
600 -563 -564 0
-600 563 0
-600 564 0
39 -565 -601 0
-39 565 0
-39 601 0
601 -566 -567 0
-601 566 0
-601 567 0
40 -568 -602 0
-40 568 0
-40 602 0
602 -569 -570 0
-602 569 0
-602 570 0
41 -571 -603 0
-41 571 0
-41 603 0
603 -572 -573 0
-603 572 0
-603 573 0
